examples/Knap/data/easy/input60_5.txt
ITEM 44 54
ITEM 79 89
ITEM 57 67
ITEM 32 42
ITEM 98 108
ITEM 83 93
ITEM 26 36
ITEM 64 74
ITEM 84 94
ITEM 12 22
ITEM 92 102
ITEM 85 95
ITEM 82 92
ITEM 39 49
ITEM 29 39
ITEM 40 50
ITEM 23 33
ITEM 98 108
ITEM 26 36
ITEM 2 12
ITEM 80 90
ITEM 17 27
ITEM 56 66
ITEM 61 71
ITEM 79 89
ITEM 14 24
ITEM 48 58
ITEM 85 95
ITEM 58 68
ITEM 64 74
ITEM 70 80
ITEM 2 12
ITEM 43 53
ITEM 28 38
ITEM 33 43
ITEM 42 52
ITEM 11 21
ITEM 59 69
ITEM 6 16
ITEM 95 105
ITEM 71 81
ITEM 97 107
ITEM 80 90
ITEM 53 63
ITEM 36 46
ITEM 10 20
ITEM 93 103
ITEM 59 69
ITEM 8 18
ITEM 19 29
ITEM 61 71
ITEM 88 98
ITEM 36 46
ITEM 18 28
ITEM 49 59
ITEM 15 25
ITEM 31 41
ITEM 96 106
ITEM 1 11
ITEM 89 99
CAPACITY 1069
